100
300
238
237
230
230
229
228
228
228
226
226
226
224
222
222
221
216
214
213
211
211
210
210
209
209
207
205
201
200
200
196
195
195
195
194
188
187
186
185
180
177
177
176
173
170
167
166
166
165
165
161
161
158
154
152
149
148
148
145
144
143
137
133
131
129
126
125
123
120
120
119
116
107
107
103
101
100
99
97
97
96
96
95
95
95
89
86
85
82
78
76
74
73
70
65
63
62
62
62
61
61
